c Result of efficient AIG-to-CNF conversion using package CNF
p cnf 620 2277
2 556 -478 0
2 556 -3 0
2 556 -511 0
-2 -556 0
-2 3 478 511 0
-3 4 397 432 455 0
3 -455 0
3 -4 0
3 -432 0
3 -397 0
-4 -5 321 0
-4 22 261 321 0
4 -321 0
4 5 -22 0
4 5 -261 0
-5 6 14 19 0
5 -6 0
5 -14 0
5 -19 0
-6 7 8 10 0
6 -7 0
6 -8 0
6 -10 0
-7 571 572 573 574 0
7 -574 0
7 -573 0
7 -571 0
7 -572 0
-8 581 582 583 9 0
8 -9 0
8 -583 0
8 -581 0
8 -582 0
-9 579 580 0
9 -579 0
9 -580 0
-10 11 12 0
10 -11 0
10 -12 0
-11 569 570 0
11 -569 0
11 -570 0
-12 577 578 13 0
12 -13 0
12 -578 0
12 -577 0
-13 575 576 0
13 -575 0
13 -576 0
-14 565 15 17 0
14 -17 0
14 -15 0
14 -565 0
-15 560 16 0
15 -560 0
15 -16 0
-16 557 558 559 0
16 -557 0
16 -559 0
16 -558 0
-17 568 18 0
17 -568 0
17 -18 0
-18 566 567 0
18 -566 0
18 -567 0
-19 20 21 0
19 -20 0
19 -21 0
-20 563 564 0
20 -563 0
20 -564 0
-21 561 562 0
21 -561 0
21 -562 0
-22 23 190 200 217 0
-22 23 -190 -200 217 0
22 -217 0
22 -190 200 0
22 -23 0
22 190 -200 0
23 24 -181 0
-23 -24 0
-23 181 0
24 584 -25 0
-24 -584 0
-24 25 0
25 585 -26 0
25 -585 -124 0
-25 -585 124 0
-25 585 26 0
26 586 -27 0
26 -586 -90 0
-26 -586 90 0
-26 586 27 0
27 -587 -59 0
27 587 -28 0
-27 587 28 0
-27 -587 59 0
-28 563 -29 0
-28 563 34 0
28 -563 0
28 29 -34 0
-29 565 30 31 32 0
29 -565 0
29 -32 0
29 -31 0
29 -30 0
-30 556 15 0
30 -556 0
30 -15 0
-31 579 580 581 12 0
31 -12 0
31 -581 0
31 -579 0
31 -580 0
-32 7 17 19 33 0
32 -33 0
32 -7 0
32 -19 0
32 -17 0
-33 582 11 0
33 -582 0
33 -11 0
-34 583 35 0
-34 -583 50 0
34 -583 -50 0
34 583 -35 0
-35 584 36 0
-35 -584 43 0
35 -584 -43 0
35 584 -36 0
-36 585 40 0
-36 -585 37 0
36 -585 -37 0
36 585 -40 0
37 586 -38 0
37 -586 -39 0
-37 -586 39 0
-37 586 38 0
38 587 -599 0
38 -587 -600 0
-38 -587 600 0
-38 587 599 0
39 587 -601 0
39 -587 -602 0
-39 -587 602 0
-39 587 601 0
40 586 -41 0
40 -586 -42 0
-40 -586 42 0
-40 586 41 0
41 587 -595 0
41 -587 -596 0
-41 -587 596 0
-41 587 595 0
42 587 -597 0
42 -587 -598 0
-42 -587 598 0
-42 587 597 0
43 585 -44 0
43 -585 -47 0
-43 -585 47 0
-43 585 44 0
44 586 -45 0
44 -586 -46 0
-44 -586 46 0
-44 586 45 0
45 587 -603 0
45 -587 -604 0
-45 -587 604 0
-45 587 603 0
46 587 -605 0
46 -587 -606 0
-46 -587 606 0
-46 587 605 0
47 586 -48 0
47 -586 -49 0
-47 -586 49 0
-47 586 48 0
48 587 -607 0
48 -587 -608 0
-48 -587 608 0
-48 587 607 0
49 587 -609 0
49 -587 -610 0
-49 -587 610 0
-49 587 609 0
50 584 -51 0
50 -584 -58 0
-50 -584 58 0
-50 584 51 0
51 585 -52 0
51 -585 -55 0
-51 -585 55 0
-51 585 52 0
52 586 -53 0
52 -586 -54 0
-52 -586 54 0
-52 586 53 0
53 587 -611 0
53 -587 -612 0
-53 -587 612 0
-53 587 611 0
54 587 -613 0
54 -587 -614 0
-54 -587 614 0
-54 587 613 0
55 586 -56 0
55 -586 -57 0
-55 -586 57 0
-55 586 56 0
56 587 -615 0
56 -587 -616 0
-56 -587 616 0
-56 587 615 0
57 587 -617 0
57 -587 -618 0
-57 -587 618 0
-57 587 617 0
58 585 586 587 -619 0
-58 619 0
-58 -587 0
-58 -585 0
-58 -586 0
-59 562 -75 0
-59 562 583 60 0
59 -562 0
59 -583 75 0
59 -60 75 0
60 584 -61 0
60 -584 -68 0
-60 -584 68 0
-60 584 61 0
61 585 -62 0
61 -585 -65 0
-61 -585 65 0
-61 585 62 0
62 586 -63 0
62 -586 -64 0
-62 -586 64 0
-62 586 63 0
63 587 -594 0
63 -587 -595 0
-63 -587 595 0
-63 587 594 0
64 587 -596 0
64 -587 -597 0
-64 -587 597 0
-64 587 596 0
65 586 -66 0
65 -586 -67 0
-65 -586 67 0
-65 586 66 0
66 587 -598 0
66 -587 -599 0
-66 -587 599 0
-66 587 598 0
67 587 -600 0
67 -587 -601 0
-67 -587 601 0
-67 587 600 0
68 585 -69 0
68 -585 -72 0
-68 -585 72 0
-68 585 69 0
69 586 -70 0
69 -586 -71 0
-69 -586 71 0
-69 586 70 0
70 587 -602 0
70 -587 -603 0
-70 -587 603 0
-70 587 602 0
71 587 -604 0
71 -587 -605 0
-71 -587 605 0
-71 587 604 0
72 586 -73 0
72 -586 -74 0
-72 -586 74 0
-72 586 73 0
73 587 -606 0
73 -587 -607 0
-73 -587 607 0
-73 587 606 0
74 587 -608 0
74 -587 -609 0
-74 -587 609 0
-74 587 608 0
-75 565 76 77 78 0
75 -565 0
75 -78 0
75 -77 0
75 -76 0
-76 582 31 0
76 -582 0
76 -31 0
-77 7 11 0
77 -7 0
77 -11 0
-78 583 30 79 0
-78 30 79 -80 0
78 -79 0
78 -30 0
78 -583 80 0
-79 17 19 0
79 -17 0
79 -19 0
80 584 -81 0
80 -584 -88 0
-80 -584 88 0
-80 584 81 0
81 585 -82 0
81 -585 -85 0
-81 -585 85 0
-81 585 82 0
82 586 -83 0
82 -586 -84 0
-82 -586 84 0
-82 586 83 0
83 587 -610 0
83 -587 -611 0
-83 -587 611 0
-83 587 610 0
84 587 -612 0
84 -587 -613 0
-84 -587 613 0
-84 587 612 0
85 586 -86 0
85 -586 -87 0
-85 -586 87 0
-85 586 86 0
86 587 -614 0
86 -587 -615 0
-86 -587 615 0
-86 587 614 0
87 587 -616 0
87 -587 -617 0
-87 -587 617 0
-87 587 616 0
88 585 -89 0
-88 -585 0
-88 89 0
89 586 -587 -619 0
89 586 587 -618 0
-89 -586 0
-89 -587 619 0
-89 587 618 0
90 -587 -107 0
90 587 -91 0
-90 587 91 0
-90 -587 107 0
-91 561 -29 0
-91 561 92 0
91 -561 0
91 29 -92 0
-92 583 93 0
-92 -583 101 0
92 -583 -101 0
92 583 -93 0
-93 584 94 0
-93 -584 98 0
93 -584 -98 0
93 584 -94 0
-94 585 96 0
-94 -585 95 0
94 -585 -95 0
94 585 -96 0
95 -586 -38 0
95 586 -42 0
-95 586 42 0
-95 -586 38 0
96 -586 -41 0
96 586 -97 0
-96 586 97 0
-96 -586 41 0
97 587 -593 0
97 -587 -594 0
-97 -587 594 0
-97 587 593 0
98 585 -99 0
98 -585 -100 0
-98 -585 100 0
-98 585 99 0
99 586 -39 0
99 -586 -45 0
-99 -586 45 0
-99 586 39 0
100 586 -46 0
100 -586 -48 0
-100 -586 48 0
-100 586 46 0
101 584 -102 0
101 -584 -105 0
-101 -584 105 0
-101 584 102 0
102 585 -103 0
102 -585 -104 0
-102 -585 104 0
-102 585 103 0
103 586 -49 0
103 -586 -53 0
-103 -586 53 0
-103 586 49 0
104 586 -54 0
104 -586 -56 0
-104 -586 56 0
-104 586 54 0
105 585 -106 0
-105 -585 0
-105 106 0
106 586 -57 0
106 -586 587 -619 0
-106 -586 -587 0
-106 586 57 0
-106 -586 619 0
-107 560 108 0
-107 560 -29 0
107 -560 0
107 29 -108 0
108 583 -109 0
108 -583 -117 0
-108 -583 117 0
-108 583 109 0
109 584 -110 0
109 -584 -114 0
-109 -584 114 0
-109 584 110 0
110 -585 -111 0
110 585 -112 0
-110 585 112 0
-110 -585 111 0
111 586 -64 0
111 -586 -66 0
-111 -586 66 0
-111 586 64 0
112 -586 -63 0
112 586 -113 0
-112 586 113 0
-112 -586 63 0
113 587 -592 0
113 -587 -593 0
-113 -587 593 0
-113 587 592 0
114 585 -115 0
114 -585 -116 0
-114 -585 116 0
-114 585 115 0
115 586 -67 0
115 -586 -70 0
-115 -586 70 0
-115 586 67 0
116 586 -71 0
116 -586 -73 0
-116 -586 73 0
-116 586 71 0
117 584 -118 0
117 -584 -121 0
-117 -584 121 0
-117 584 118 0
118 585 -119 0
118 -585 -120 0
-118 -585 120 0
-118 585 119 0
119 586 -74 0
119 -586 -83 0
-119 -586 83 0
-119 586 74 0
120 586 -84 0
120 -586 -86 0
-120 -586 86 0
-120 586 84 0
121 585 -122 0
-121 -585 0
-121 122 0
122 586 -87 0
122 -586 -123 0
-122 -586 123 0
-122 586 87 0
123 587 -618 0
123 -587 -619 0
-123 -587 619 0
-123 587 618 0
124 586 -125 0
124 -586 -157 0
-124 -586 157 0
-124 586 125 0
125 -587 -143 0
125 587 -126 0
-125 587 126 0
-125 -587 143 0
-126 559 -132 0
-126 559 583 127 0
126 -559 0
126 -583 132 0
126 -127 132 0
127 584 -128 0
127 -584 -131 0
-127 -584 131 0
-127 584 128 0
128 -585 -40 0
128 585 -129 0
-128 -585 40 0
-128 585 129 0
-129 586 130 0
-129 -586 97 0
129 -586 -97 0
129 586 -130 0
130 587 -591 0
130 -587 -592 0
-130 -587 592 0
-130 587 591 0
131 585 -37 0
131 -585 -44 0
-131 -585 44 0
-131 585 37 0
-132 10 133 136 138 0
132 -138 0
132 -10 0
132 -136 0
132 -133 0
-133 21 30 134 0
133 -21 0
133 -30 0
133 -134 0
-134 17 135 0
134 -17 0
134 -135 0
-135 565 20 0
135 -565 0
135 -20 0
-136 579 580 137 0
136 -137 0
136 -580 0
136 -579 0
-137 581 582 0
137 -581 0
137 -582 0
-138 583 7 0
-138 7 -139 0
138 -7 0
138 -583 139 0
139 584 -140 0
139 -584 -141 0
-139 -584 141 0
-139 584 140 0
140 585 -47 0
140 -585 -52 0
-140 -585 52 0
-140 585 47 0
141 585 -55 0
141 -585 -142 0
-141 -585 142 0
-141 585 55 0
142 586 587 -619 0
-142 619 0
-142 -587 0
-142 -586 0
-143 558 -145 0
-143 558 -144 0
-143 558 147 0
143 -558 0
143 144 145 -147 0
-144 13 21 77 137 0
144 -137 0
144 -13 0
144 -77 0
144 -21 0
-145 134 146 0
145 -134 0
145 -146 0
-146 577 578 579 580 0
146 -580 0
146 -579 0
146 -577 0
146 -578 0
147 -583 148 -154 0
147 583 148 -149 0
-147 -148 0
-147 -583 154 0
-147 583 149 0
-148 556 557 559 560 0
148 -560 0
148 -559 0
148 -556 0
148 -557 0
-149 584 150 0
-149 -584 153 0
149 -584 -153 0
149 584 -150 0
-150 585 151 0
-150 -585 62 0
150 -585 -62 0
150 585 -151 0
151 -586 -113 0
151 586 -152 0
-151 586 152 0
-151 -586 113 0
152 587 -590 0
152 -587 -591 0
-152 -587 591 0
-152 587 590 0
153 585 -65 0
153 -585 -69 0
-153 -585 69 0
-153 585 65 0
154 584 -155 0
154 -584 -156 0
-154 -584 156 0
-154 584 155 0
155 585 -72 0
155 -585 -82 0
-155 -585 82 0
-155 585 72 0
156 585 -85 0
156 -585 -89 0
-156 -585 89 0
-156 585 85 0
157 -587 -170 0
157 587 -158 0
-157 587 158 0
-157 -587 170 0
-158 557 159 0
158 -557 0
158 -159 0
159 -583 -160 168 0
159 583 -163 168 0
-159 -168 0
-159 -583 160 0
-159 583 163 0
160 584 -161 0
160 -584 -162 0
-160 -584 162 0
-160 584 161 0
161 585 -100 0
161 -585 -103 0
-161 -585 103 0
-161 585 100 0
162 585 -104 0
162 -585 -106 0
-162 -585 106 0
-162 585 104 0
163 -584 -164 0
163 584 -165 0
-163 -584 164 0
-163 584 165 0
164 585 -95 0
164 -585 -99 0
-164 -585 99 0
-164 585 95 0
-165 -585 96 0
-165 585 166 167 0
165 -585 -96 0
165 585 -167 0
165 585 -166 0
166 586 587 -589 0
-166 589 0
-166 -587 0
-166 -586 0
-167 -586 130 0
-167 586 590 0
-167 586 587 0
167 -586 -130 0
167 586 -587 -590 0
-168 558 144 145 169 0
168 -558 0
168 -169 0
168 -145 0
168 -144 0
-169 556 559 560 0
169 -556 0
169 -560 0
169 -559 0
-170 556 171 0
170 -556 0
170 -171 0
171 -583 -172 180 0
171 583 -175 180 0
-171 -180 0
-171 -583 172 0
-171 583 175 0
172 584 -173 0
172 -584 -174 0
-172 -584 174 0
-172 584 173 0
173 585 -116 0
173 -585 -119 0
-173 -585 119 0
-173 585 116 0
174 585 -120 0
174 -585 -122 0
-174 -585 122 0
-174 585 120 0
175 -584 -176 0
175 584 -177 0
-175 -584 176 0
-175 584 177 0
176 585 -111 0
176 -585 -115 0
-176 -585 115 0
-176 585 111 0
-177 -585 112 0
-177 585 178 179 0
177 -585 -112 0
177 585 -179 0
177 585 -178 0
178 586 587 -588 0
-178 588 0
-178 -587 0
-178 -586 0
-179 -586 152 0
-179 586 589 0
-179 586 587 0
179 -586 -152 0
179 586 -587 -589 0
-180 15 144 145 0
180 -15 0
180 -144 0
180 -145 0
181 -595 182 0
-181 595 0
-181 -182 0
-182 584 183 0
182 -584 0
182 -183 0
-183 585 184 0
-183 -585 187 0
183 -585 -187 0
183 585 -184 0
-184 586 185 0
-184 -586 186 0
184 -586 -186 0
184 586 -185 0
-185 563 587 0
-185 562 -587 0
185 -563 587 0
185 -562 -587 0
-186 561 587 0
-186 560 -587 0
186 -561 587 0
186 -560 -587 0
-187 586 188 0
-187 -586 189 0
187 -586 -189 0
187 586 -188 0
-188 559 587 0
-188 558 -587 0
188 -559 587 0
188 -558 -587 0
-189 557 587 0
-189 556 -587 0
189 -557 587 0
189 -556 -587 0
190 -596 191 0
-190 596 0
-190 -191 0
-191 584 192 0
-191 -584 199 0
191 -584 -199 0
191 584 -192 0
-192 585 193 0
-192 -585 196 0
192 -585 -196 0
192 585 -193 0
-193 586 194 0
-193 -586 195 0
193 -586 -195 0
193 586 -194 0
-194 564 587 0
-194 563 -587 0
194 -564 587 0
194 -563 -587 0
-195 562 587 0
-195 561 -587 0
195 -562 587 0
195 -561 -587 0
-196 586 197 0
-196 -586 198 0
196 -586 -198 0
196 586 -197 0
-197 560 587 0
-197 559 -587 0
197 -560 587 0
197 -559 -587 0
-198 558 587 0
-198 557 -587 0
198 -558 587 0
198 -557 -587 0
-199 556 585 586 587 0
199 -587 0
199 -586 0
199 -556 0
199 -585 0
200 584 -201 0
200 -584 -214 0
-200 -584 214 0
-200 584 201 0
201 585 -202 0
201 -585 -211 0
-201 -585 211 0
-201 585 202 0
202 586 -203 0
202 -586 -210 0
-202 -586 210 0
-202 586 203 0
203 587 -204 0
203 -587 -28 0
-203 -587 28 0
-203 587 204 0
-204 564 -133 0
-204 564 -207 0
-204 564 205 0
204 -564 0
204 133 -205 207 0
-205 176 206 0
205 -176 0
205 -206 0
-206 583 584 0
206 -583 0
206 -584 0
-207 76 77 208 0
207 -76 0
207 -77 0
207 -208 0
-208 583 584 0
-208 -173 -209 0
-208 584 -209 0
-208 583 -173 0
208 -584 173 0
208 -583 209 0
209 584 -174 0
-209 -584 0
-209 174 0
210 -587 -91 0
210 587 -59 0
-210 587 59 0
-210 -587 91 0
211 586 -212 0
211 -586 -213 0
-211 -586 213 0
-211 586 212 0
212 -587 -126 0
212 587 -107 0
-212 587 107 0
-212 -587 126 0
213 -587 -158 0
213 587 -143 0
-213 587 143 0
-213 -587 158 0
214 585 -215 0
-214 -585 0
-214 215 0
215 586 -216 0
-215 -586 0
-215 216 0
216 587 -170 0
-216 -587 0
-216 170 0
-217 226 241 248 0
-217 -218 -241 -248 0
-217 -218 241 248 0
-217 226 -241 -248 0
217 241 -248 0
217 -241 248 0
217 218 -226 0
218 -598 219 0
-218 598 0
-218 -219 0
-219 584 220 0
-219 -584 224 0
219 -584 -224 0
219 584 -220 0
-220 585 221 0
-220 -585 223 0
220 -585 -223 0
220 585 -221 0
-221 -586 194 0
-221 586 222 0
221 586 -222 0
221 -586 -194 0
-222 566 587 0
-222 565 -587 0
222 -566 587 0
222 -565 -587 0
-223 586 195 0
-223 -586 197 0
223 -586 -197 0
223 586 -195 0
-224 585 225 0
224 -585 0
224 -225 0
-225 586 198 0
-225 556 -586 587 0
225 586 -198 0
225 -586 -587 0
225 -556 -586 0
226 584 -227 0
226 -584 -239 0
-226 -584 239 0
-226 584 227 0
227 585 -228 0
227 -585 -238 0
-227 -585 238 0
-227 585 228 0
228 -586 -203 0
228 586 -229 0
-228 586 229 0
-228 -586 203 0
229 -587 -234 0
229 587 -230 0
-229 587 230 0
-229 -587 234 0
-230 566 -232 0
-230 566 231 0
-230 566 -29 0
230 -566 0
230 29 -231 232 0
231 -583 584 0
231 -584 -155 0
231 584 -153 0
-231 -584 155 0
-231 583 584 153 0
232 -583 233 0
-232 583 0
-232 -233 0
233 584 -156 0
-233 -584 0
-233 156 0
-234 565 -236 0
-234 565 235 0
-234 565 -29 0
234 -565 0
234 29 -235 236 0
235 -584 -161 0
235 -583 584 0
235 584 -164 0
-235 -584 161 0
-235 583 584 164 0
236 -583 237 0
-236 583 0
-236 -237 0
237 584 -162 0
-237 -584 0
-237 162 0
238 586 -210 0
238 -586 -212 0
-238 -586 212 0
-238 586 210 0
239 585 -240 0
-239 -585 0
-239 240 0
240 586 -213 0
240 -586 -216 0
-240 -586 216 0
-240 586 213 0
241 -600 242 0
-241 600 0
-241 -242 0
-242 584 243 0
-242 -584 246 0
242 -584 -246 0
242 584 -243 0
-243 -585 193 0
-243 585 244 0
243 585 -244 0
243 -585 -193 0
-244 -586 222 0
-244 586 245 0
244 586 -245 0
244 -586 -222 0
-245 568 587 0
-245 567 -587 0
245 -568 587 0
245 -567 -587 0
-246 585 196 0
-246 -585 247 0
246 -585 -247 0
246 585 -196 0
-247 556 586 587 0
247 -556 0
247 -587 0
247 -586 0
248 584 -249 0
248 -584 -260 0
-248 -584 260 0
-248 584 249 0
249 -585 -202 0
249 585 -250 0
-249 585 250 0
-249 -585 202 0
250 -586 -229 0
250 586 -251 0
-250 586 251 0
-250 -586 229 0
251 -587 -256 0
251 587 -252 0
-251 587 252 0
-251 -587 256 0
-252 568 -29 0
-252 568 253 0
252 -568 0
252 29 -253 0
-253 583 254 0
-253 -583 255 0
253 -583 -255 0
253 583 -254 0
-254 -584 118 0
-254 584 114 0
254 584 -114 0
254 -584 -118 0
255 584 -121 0
-255 -584 0
-255 121 0
-256 567 -29 0
-256 567 257 0
256 -567 0
256 29 -257 0
-257 583 258 0
-257 -583 259 0
257 -583 -259 0
257 583 -258 0
-258 -584 140 0
-258 584 131 0
258 584 -131 0
258 -584 -140 0
259 584 -141 0
-259 -584 0
-259 141 0
260 585 -211 0
260 -585 -215 0
-260 -585 215 0
-260 585 211 0
-261 262 269 275 298 0
-261 -262 -269 275 298 0
261 -298 0
261 -262 269 0
261 -275 0
261 262 -269 0
262 -599 263 0
-262 599 0
-262 -263 0
-263 584 264 0
-263 -584 268 0
263 -584 -268 0
263 584 -264 0
-264 -585 184 0
-264 585 265 0
264 585 -265 0
264 -585 -184 0
-265 586 266 0
-265 -586 267 0
265 -586 -267 0
265 586 -266 0
-266 567 587 0
-266 566 -587 0
266 -567 587 0
266 -566 -587 0
-267 565 587 0
-267 564 -587 0
267 -565 587 0
267 -564 -587 0
-268 585 187 0
268 -585 0
268 -187 0
269 584 -270 0
269 -584 -274 0
-269 -584 274 0
-269 584 270 0
270 -585 -26 0
270 585 -271 0
-270 585 271 0
-270 -585 26 0
271 586 -272 0
271 -586 -273 0
-271 -586 273 0
-271 586 272 0
272 587 -256 0
272 -587 -230 0
-272 -587 230 0
-272 587 256 0
273 587 -234 0
273 -587 -204 0
-273 -587 204 0
-273 587 234 0
274 585 -124 0
-274 -585 0
-274 124 0
-275 -276 -288 297 0
-275 276 288 297 0
275 -297 0
275 -276 288 0
275 276 -288 0
-276 584 280 0
-276 -584 277 0
276 -584 -277 0
276 584 -280 0
277 585 -278 0
277 -585 -279 0
-277 -585 279 0
-277 585 278 0
278 586 -90 0
278 -586 -125 0
-278 -586 125 0
-278 586 90 0
279 586 -157 0
-279 -586 0
-279 157 0
280 585 -281 0
280 -585 -287 0
-280 -585 287 0
-280 585 281 0
281 -586 -272 0
281 586 -282 0
-281 586 282 0
-281 -586 272 0
282 587 -283 0
282 -587 -252 0
-282 -587 252 0
-282 587 283 0
-283 569 -29 0
-283 569 284 0
283 -569 0
283 29 -284 0
-284 583 285 0
-284 -583 286 0
284 -583 -286 0
284 583 -285 0
-285 -584 102 0
-285 584 98 0
285 584 -98 0
285 -584 -102 0
286 584 -105 0
-286 -584 0
-286 105 0
287 -586 -27 0
287 586 -273 0
-287 586 273 0
-287 -586 27 0
288 -601 289 0
-288 601 0
-288 -289 0
-289 584 290 0
-289 -584 294 0
289 -584 -294 0
289 584 -290 0
-290 585 291 0
-290 -585 293 0
290 -585 -293 0
290 585 -291 0
-291 -586 266 0
-291 586 292 0
291 586 -292 0
291 -586 -266 0
-292 569 587 0
-292 568 -587 0
292 -569 587 0
292 -568 -587 0
-293 -586 185 0
-293 586 267 0
293 586 -267 0
293 -586 -185 0
-294 585 295 0
-294 -585 296 0
294 -585 -296 0
294 585 -295 0
-295 586 186 0
-295 -586 188 0
295 -586 -188 0
295 586 -186 0
-296 556 586 -587 0
-296 557 586 587 0
296 -586 0
296 -557 587 0
296 -556 -587 0
297 -5 -24 0
297 -24 181 0
-297 24 0
-297 5 -181 0
-298 299 303 307 310 0
-298 299 -303 -307 310 0
298 -310 0
298 -303 307 0
298 -299 0
298 303 -307 0
299 -300 301 0
-299 300 0
-299 -301 0
300 584 -277 0
-300 -584 0
-300 277 0
301 -593 5 302 0
-301 593 0
-301 -5 0
-301 -302 0
-302 584 294 0
302 -584 0
302 -294 0
303 -597 304 0
-303 597 0
-303 -304 0
-304 584 305 0
-304 -584 306 0
304 -584 -306 0
304 584 -305 0
-305 585 293 0
-305 -585 295 0
305 -585 -295 0
305 585 -293 0
-306 585 296 0
306 -585 0
306 -296 0
307 584 -308 0
307 -584 -309 0
-307 -584 309 0
-307 584 308 0
308 -585 -278 0
308 585 -287 0
-308 585 287 0
-308 -585 278 0
309 585 -279 0
-309 -585 0
-309 279 0
-310 311 316 0
-310 5 -313 316 0
310 -316 0
310 -311 313 0
310 -5 -311 0
311 584 -312 0
-311 -584 0
-311 312 0
312 585 -238 0
312 -585 -240 0
-312 -585 240 0
-312 585 238 0
313 -594 314 0
-313 594 0
-313 -314 0
-314 584 315 0
314 -584 0
314 -315 0
-315 585 223 0
-315 -585 225 0
315 -585 -225 0
315 585 -223 0
-316 317 318 0
-316 5 317 -319 0
316 -317 0
316 -318 319 0
316 -5 -318 0
317 -218 226 0
-317 218 0
-317 -226 0
318 584 -260 0
-318 -584 0
-318 260 0
319 -592 320 0
-319 592 0
-319 -320 0
-320 584 246 0
320 -584 0
320 -246 0
-321 322 -384 -396 0
-321 -374 384 396 0
-321 322 384 396 0
-321 -374 -384 -396 0
321 384 -396 0
321 -384 396 0
321 -322 374 0
322 583 180 -335 0
322 -583 180 -323 0
-322 -180 0
-322 583 335 0
-322 -583 323 0
-323 584 324 0
-323 -584 25 0
323 -584 -25 0
323 584 -324 0
324 -585 -271 0
324 585 -325 0
-324 585 325 0
-324 -585 271 0
325 -586 -282 0
325 586 -326 0
-325 586 326 0
-325 -586 282 0
326 -587 -331 0
326 587 -327 0
-326 587 327 0
-326 -587 331 0
-327 571 -29 0
-327 571 328 0
327 -571 0
327 29 -328 0
-328 583 329 0
-328 -583 330 0
328 -583 -330 0
328 583 -329 0
-329 -584 51 0
-329 584 43 0
329 584 -43 0
329 -584 -51 0
330 584 -58 0
-330 -584 0
-330 58 0
-331 570 -29 0
-331 570 332 0
331 -570 0
331 29 -332 0
-332 583 333 0
-332 -583 334 0
332 -583 -334 0
332 583 -333 0
-333 -584 81 0
-333 584 68 0
333 584 -68 0
333 -584 -81 0
334 584 -88 0
-334 -584 0
-334 88 0
-335 -584 336 0
-335 584 361 0
335 -584 -336 0
335 584 -361 0
336 585 -337 0
336 -585 -345 0
-336 -585 345 0
-336 585 337 0
337 586 -338 0
337 -586 -342 0
-337 -586 342 0
-337 586 338 0
338 -587 -341 0
338 587 -339 0
-338 587 339 0
-338 -587 341 0
-339 579 -340 0
-339 579 50 0
339 -579 0
339 -50 340 0
-340 6 133 0
340 -6 0
340 -133 0
-341 578 -340 0
-341 578 80 0
341 -578 0
341 -80 340 0
342 -587 -344 0
342 587 -343 0
-342 587 343 0
-342 -587 344 0
-343 577 -340 0
-343 577 101 0
343 -577 0
343 -101 340 0
-344 576 -340 0
-344 576 117 0
344 -576 0
344 -117 340 0
345 586 -346 0
345 -586 -349 0
-345 -586 349 0
-345 586 346 0
346 -587 -348 0
346 587 -347 0
-346 587 347 0
-346 -587 348 0
-347 575 -340 0
-347 575 139 0
347 -575 0
347 -139 340 0
-348 574 -340 0
-348 574 154 0
348 -574 0
348 -154 340 0
349 -587 -354 0
349 587 -350 0
-349 587 350 0
-349 -587 354 0
-350 573 -351 0
-350 573 160 0
-350 573 -352 0
350 -573 0
350 -160 351 352 0
-351 560 561 16 0
351 -16 0
351 -561 0
351 -560 0
-352 556 6 17 353 0
352 -556 0
352 -353 0
352 -17 0
352 -6 0
-353 562 135 0
353 -562 0
353 -135 0
-354 572 359 0
-354 572 -355 0
354 -572 0
354 355 -359 0
-355 556 356 357 358 0
355 -556 0
355 -358 0
355 -357 0
355 -356 0
-356 582 583 0
356 -582 0
356 -583 0
-357 560 561 0
357 -560 0
357 -561 0
-358 16 134 0
358 -16 0
358 -134 0
359 7 31 -172 360 0
-359 -360 0
-359 -7 0
-359 172 0
-359 -31 0
-360 562 11 0
360 -562 0
360 -11 0
-361 -585 367 0
-361 585 362 366 0
361 585 -362 0
361 -585 -367 0
361 585 -366 0
362 -586 -363 0
-362 586 0
-362 363 0
363 -587 -365 0
363 587 -364 0
-363 587 364 0
-363 -587 365 0
-364 585 -340 0
-364 585 286 0
364 -585 0
364 -286 340 0
-365 584 -340 0
-365 584 255 0
365 -584 0
365 -255 340 0
-366 -340 0
-366 330 334 0
-366 587 330 0
366 -330 340 0
366 -587 -334 340 0
367 586 -368 0
367 -586 -371 0
-367 -586 371 0
-367 586 368 0
368 -587 -370 0
368 587 -369 0
-368 587 369 0
-368 -587 370 0
-369 583 -340 0
-369 583 259 0
369 -583 0
369 -259 340 0
-370 582 -340 0
-370 582 233 0
370 -582 0
370 -233 340 0
371 -587 -373 0
371 587 -372 0
-371 587 372 0
-371 -587 373 0
-372 581 -340 0
-372 581 237 0
372 -581 0
372 -237 340 0
-373 580 -340 0
-373 580 209 0
373 -580 0
373 -209 340 0
374 583 -375 377 0
374 -375 377 380 0
-374 -377 0
-374 375 0
-374 -583 -380 0
375 -619 376 0
-375 619 0
-375 -376 0
-376 20 77 0
376 -20 0
376 -77 0
-377 21 378 0
377 -21 0
377 -378 0
-378 14 137 379 0
378 -14 0
378 -137 0
378 -379 0
-379 13 146 0
379 -13 0
379 -146 0
-380 -584 183 0
-380 584 381 0
380 584 -381 0
380 -584 -183 0
-381 -585 265 0
-381 585 382 0
381 585 -382 0
381 -585 -265 0
-382 -586 292 0
-382 586 383 0
382 586 -383 0
382 -586 -292 0
-383 571 587 0
-383 570 -587 0
383 -571 587 0
383 -570 -587 0
384 583 180 -385 0
384 -583 180 -311 0
-384 -180 0
-384 583 385 0
-384 -583 311 0
-385 584 389 0
-385 -584 386 0
385 -584 -386 0
385 584 -389 0
386 -585 -228 0
386 585 -387 0
-386 585 387 0
-386 -585 228 0
387 -586 -251 0
387 586 -388 0
-387 586 388 0
-387 -586 251 0
388 587 -331 0
388 -587 -283 0
-388 -587 283 0
-388 587 331 0
389 585 -390 0
389 -585 -393 0
-389 -585 393 0
-389 585 390 0
390 586 -391 0
390 -586 -392 0
-390 -586 392 0
-390 586 391 0
391 -587 -343 0
391 587 -341 0
-391 587 341 0
-391 -587 343 0
392 -587 -347 0
392 587 -344 0
-392 587 344 0
-392 -587 347 0
393 586 -394 0
393 -586 -395 0
-393 -586 395 0
-393 586 394 0
394 -587 -350 0
394 587 -348 0
-394 587 348 0
-394 -587 350 0
395 587 -354 0
395 -587 -327 0
-395 -587 327 0
-395 587 354 0
396 583 -610 180 0
396 -610 180 314 0
-396 -180 0
-396 610 0
-396 -583 -314 0
-397 -406 408 0
-397 398 408 0
397 -408 0
397 -398 406 0
398 583 180 -399 0
398 -583 180 -276 0
-398 -180 0
-398 583 399 0
-398 -583 276 0
-399 584 405 0
-399 -584 400 0
-399 584 -403 0
399 -584 -400 0
399 584 403 -405 0
400 585 -401 0
400 -585 -402 0
-400 -585 402 0
-400 585 401 0
401 586 -342 0
401 -586 -346 0
-401 -586 346 0
-401 586 342 0
402 -586 -326 0
402 586 -349 0
-402 586 349 0
-402 -586 326 0
403 -585 404 0
-403 585 0
-403 -404 0
404 -586 -338 0
404 586 -371 0
-404 586 371 0
-404 -586 338 0
-405 585 -586 368 0
-405 585 586 363 0
405 -585 0
405 -586 -368 0
405 586 -363 0
406 583 377 -407 0
406 289 377 -407 0
-406 407 0
-406 -377 0
-406 -583 -289 0
407 -617 376 0
-407 617 0
-407 -376 0
-408 -420 427 0
-408 409 -423 0
-408 -420 -423 0
-408 409 427 0
408 423 -427 0
408 -409 420 0
409 583 180 -410 0
409 -583 180 -248 0
-409 -180 0
-409 583 410 0
-409 -583 248 0
-410 584 417 0
-410 -584 411 0
-410 584 -414 0
410 -584 -411 0
410 584 414 -417 0
411 585 -412 0
411 -585 -413 0
-411 -585 413 0
-411 585 412 0
412 586 -392 0
412 -586 -394 0
-412 -586 394 0
-412 586 392 0
413 -586 -388 0
413 586 -395 0
-413 586 395 0
-413 -586 388 0
414 -585 415 0
-414 585 0
-414 -415 0
415 -586 -391 0
415 586 -416 0
-415 586 416 0
-415 -586 391 0
416 587 -373 0
416 -587 -339 0
-416 -587 339 0
-416 587 373 0
-417 585 -586 418 0
-417 585 586 419 0
417 -585 0
417 -586 -418 0
417 586 -419 0
418 -587 -372 0
418 587 -370 0
-418 587 370 0
-418 -587 372 0
419 -587 -369 0
419 587 -365 0
-419 587 365 0
-419 -587 369 0
420 561 7 378 -421 0
-420 -561 0
-420 421 0
-420 -378 0
-420 -7 0
421 583 20 -422 0
421 20 242 -422 0
-421 422 0
-421 -20 0
-421 -583 -242 0
422 -616 360 0
-422 616 0
-422 -360 0
423 583 180 -424 0
423 -583 180 -269 0
-423 -180 0
-423 583 424 0
-423 -583 269 0
-424 584 426 0
-424 425 426 0
424 -426 0
424 -584 -425 0
425 -585 -325 0
425 585 -345 0
-425 585 345 0
-425 -585 325 0
426 584 585 -367 0
426 584 -585 -337 0
-426 -584 0
-426 -585 337 0
-426 585 367 0
427 583 -428 431 0
427 263 -428 431 0
-427 -431 0
-427 428 0
-427 -583 -263 0
428 -615 429 0
-428 615 0
-428 -429 0
-429 18 351 430 0
429 -18 0
429 -351 0
429 -430 0
-430 11 137 379 0
430 -11 0
430 -137 0
430 -379 0
-431 568 7 353 0
431 -353 0
431 -7 0
431 -568 0
-432 433 439 0
-432 -5 439 0
-432 -434 439 0
432 -439 0
432 5 -433 434 0
433 584 -214 0
-433 -584 0
-433 214 0
434 8 199 435 -438 0
-434 438 0
-434 -8 0
-434 -435 0
-434 -199 0
-435 560 436 21 437 0
435 -560 0
435 -437 0
435 -21 0
435 -436 0
-436 572 573 574 0
436 -572 0
436 -574 0
436 -573 0
-437 571 577 11 13 0
437 -571 0
437 -13 0
437 -11 0
437 -577 0
438 578 584 -588 358 0
-438 -578 0
-438 -358 0
-438 588 0
-438 -584 0
-439 -300 440 447 0
-439 301 440 447 0
439 -447 0
439 -440 0
439 300 -301 0
440 -441 445 0
-440 441 0
-440 -445 0
441 583 180 -443 0
441 180 -442 -443 0
-441 -180 0
-441 443 0
-441 -583 442 0
442 584 -309 0
-442 -584 0
-442 309 0
-443 583 -584 308 0
-443 583 584 444 0
443 -583 0
443 -584 -308 0
443 584 -444 0
444 -585 -281 0
444 585 -402 0
-444 585 402 0
-444 -585 281 0
445 583 -605 180 0
445 -605 180 446 0
-445 -180 0
-445 605 0
-445 -583 -446 0
-446 584 306 0
446 -584 0
446 -306 0
447 5 -448 0
447 5 -452 453 0
-447 -5 0
-447 448 -453 0
-447 448 452 0
448 449 -450 0
448 -449 450 0
-448 -449 -450 0
-448 449 450 0
449 584 -239 0
-449 -584 0
-449 239 0
450 -590 451 0
-450 590 0
-450 -451 0
-451 584 224 0
451 -584 0
451 -224 0
452 584 -274 0
-452 -584 0
-452 274 0
453 -591 454 0
-453 591 0
-453 -454 0
-454 584 268 0
454 -584 0
454 -268 0
-455 456 470 473 0
-455 456 -472 473 0
455 -473 0
455 -456 0
455 -470 472 0
-456 -5 457 0
-456 457 -464 -465 0
-456 457 464 465 0
456 -457 0
456 5 -464 465 0
456 5 464 -465 0
457 -458 461 0
-457 458 0
-457 -461 0
458 583 180 -459 0
458 -583 180 -307 0
-458 -180 0
-458 583 459 0
-458 -583 307 0
-459 584 460 0
-459 444 460 0
459 -460 0
459 -584 -444 0
460 584 585 -404 0
460 584 -585 -401 0
-460 -584 0
-460 -585 401 0
-460 585 404 0
461 -613 15 462 463 0
-461 -463 0
-461 613 0
-461 -462 0
-461 -15 0
-462 561 430 0
462 -561 0
462 -430 0
-463 583 18 431 0
-463 18 304 431 0
463 -431 0
463 -18 0
463 -583 -304 0
-464 584 386 0
-464 -584 312 0
464 -584 -312 0
464 584 -386 0
465 -602 466 0
-465 602 0
-465 -466 0
-466 -584 315 0
-466 584 467 0
466 584 -467 0
466 -584 -315 0
-467 -585 221 0
-467 585 468 0
467 585 -468 0
467 -585 -221 0
-468 -586 245 0
-468 586 469 0
468 586 -469 0
468 -586 -245 0
-469 570 587 0
-469 569 -587 0
469 -570 587 0
469 -569 -587 0
470 583 180 -471 0
470 180 -452 -471 0
-470 -180 0
-470 471 0
-470 -583 452 0
-471 583 -584 270 0
-471 583 584 425 0
471 -583 0
471 -584 -270 0
471 584 -425 0
472 583 -607 180 0
472 -607 180 454 0
-472 -180 0
-472 607 0
-472 -583 -454 0
-473 -5 461 0
-473 -458 474 0
-473 -5 -458 0
-473 461 474 0
473 5 -474 0
473 458 -461 0
-474 -311 475 476 0
-474 313 475 476 0
474 -476 0
474 -475 0
474 311 -313 0
-475 -318 453 0
-475 319 -452 0
-475 319 453 0
-475 -318 -452 0
475 318 -319 0
475 452 -453 0
-476 -442 -477 0
-476 442 477 0
476 442 -477 0
476 -442 477 0
477 -589 446 0
-477 589 0
-477 -446 0
-478 479 481 494 495 0
-478 -479 -481 494 495 0
478 -494 0
478 479 -481 0
478 -495 0
478 -479 481 0
479 583 180 -480 0
479 -583 180 -24 0
-479 -180 0
-479 583 480 0
-479 -583 24 0
-480 584 336 0
-480 -584 324 0
480 -584 -324 0
480 584 -336 0
481 -611 482 483 485 0
-481 -485 0
-481 611 0
-481 -483 0
-481 -482 0
-482 15 379 0
482 -15 0
482 -379 0
-483 584 484 21 0
-483 484 21 381 0
483 -21 0
483 -484 0
483 -584 -381 0
-484 565 17 0
484 -565 0
484 -17 0
-485 -206 486 493 0
-485 486 487 493 0
485 -493 0
485 -486 0
485 206 -487 0
-486 11 137 0
486 -11 0
486 -137 0
-487 585 488 0
-487 -585 491 492 0
487 -585 -491 0
487 585 -488 0
487 -585 -492 0
-488 586 489 0
-488 -586 490 0
488 -586 -490 0
488 586 -489 0
-489 579 587 0
-489 578 -587 0
489 -579 587 0
489 -578 -587 0
-490 577 587 0
-490 576 -587 0
490 -577 587 0
490 -576 -587 0
491 -574 586 -587 0
491 -575 586 587 0
-491 -586 0
-491 574 -587 0
-491 575 587 0
492 -572 -586 -587 0
492 -573 -586 587 0
-492 586 0
-492 572 -587 0
-492 573 587 0
-493 583 7 20 0
-493 7 20 182 0
493 -20 0
493 -7 0
493 -583 -182 0
494 409 -420 0
-494 -409 0
-494 420 0
-495 423 496 503 0
-495 -427 496 503 0
495 -503 0
495 -496 0
495 -423 427 0
-496 -398 -501 0
-496 406 497 0
-496 -398 497 0
-496 406 -501 0
496 398 -406 0
496 -497 501 0
497 583 180 -498 0
497 -583 180 -200 0
-497 -180 0
-497 583 498 0
-497 -583 200 0
-498 584 500 0
-498 499 500 0
498 -500 0
498 -584 -499 0
499 -585 -250 0
499 585 -413 0
-499 585 413 0
-499 -585 250 0
500 584 585 -415 0
500 584 -585 -412 0
-500 -584 0
-500 -585 412 0
-500 585 415 0
501 -612 15 462 502 0
-501 -502 0
-501 612 0
-501 -462 0
-501 -15 0
-502 583 18 431 0
-502 18 191 431 0
502 -431 0
502 -18 0
502 -583 -191 0
-503 501 504 509 0
-503 -497 -504 -509 0
-503 -497 504 509 0
-503 501 -504 -509 0
503 504 -509 0
503 -504 509 0
503 497 -501 0
504 583 180 -505 0
504 -583 180 -226 0
-504 -180 0
-504 583 505 0
-504 -583 226 0
-505 584 507 0
-505 506 507 0
505 -507 0
505 -584 -506 0
506 -585 -387 0
506 585 -393 0
-506 585 393 0
-506 -585 387 0
507 584 585 -508 0
507 584 -585 -390 0
-507 -584 0
-507 -585 390 0
-507 585 508 0
508 -586 -416 0
508 586 -418 0
-508 586 418 0
-508 -586 416 0
509 583 431 -510 0
509 219 431 -510 0
-509 510 0
-509 -431 0
-509 -583 -219 0
510 -614 429 0
-510 614 0
-510 -429 0
-511 512 523 529 531 0
-511 512 -523 -529 531 0
511 -531 0
511 -523 529 0
511 -512 0
511 523 -529 0
-512 -322 513 514 0
-512 374 513 514 0
512 -514 0
512 -513 0
512 322 -374 0
-513 -441 472 0
-513 445 -470 0
-513 445 472 0
-513 -441 -470 0
513 441 -445 0
513 470 -472 0
-514 515 517 -520 -522 0
-514 -515 -517 -520 -522 0
-514 515 517 520 522 0
-514 -515 -517 520 522 0
514 515 -517 0
514 -515 517 0
514 520 -522 0
514 -520 522 0
515 583 180 -516 0
515 180 -300 -516 0
-515 -180 0
-515 516 0
-515 -583 300 0
-516 583 -584 280 0
-516 583 584 400 0
516 -583 0
516 -584 -280 0
516 584 -400 0
517 79 137 482 -518 0
-517 518 0
-517 -79 0
-517 -482 0
-517 -137 0
518 583 -609 519 0
518 -609 519 302 0
-518 -519 0
-518 609 0
-518 -583 -302 0
-519 565 77 0
519 -565 0
519 -77 0
520 583 180 -521 0
520 180 -449 -521 0
-520 -180 0
-520 521 0
-520 -583 449 0
-521 583 -584 227 0
-521 583 584 506 0
521 -583 0
521 -584 -227 0
521 584 -506 0
522 583 -606 180 0
522 -606 180 451 0
-522 -180 0
-522 606 0
-522 -583 -451 0
523 583 180 -524 0
523 -583 180 -464 0
-523 -180 0
-523 583 524 0
-523 -583 464 0
-524 -584 389 0
-524 584 525 0
524 -584 -389 0
524 584 -525 0
-525 -585 508 0
-525 585 526 527 0
525 -585 -508 0
525 585 -527 0
525 585 -526 0
526 586 -587 -364 0
-526 -586 0
-526 587 0
-526 364 0
-527 586 -587 0
-527 -586 419 0
-527 586 528 0
527 -586 -419 0
527 586 587 -528 0
528 -334 340 0
-528 334 0
-528 -340 0
529 583 377 -530 0
529 377 466 -530 0
-529 530 0
-529 -377 0
-529 -583 -466 0
530 -618 376 0
-530 618 0
-530 -376 0
-531 -5 532 0
-531 -323 532 -555 0
-531 323 532 555 0
531 -532 0
531 5 323 -555 0
531 5 -323 555 0
-532 533 535 -545 -547 0
-532 -533 -535 -545 -547 0
-532 533 535 545 547 0
-532 -533 -535 545 547 0
532 533 -535 0
532 -533 535 0
532 545 -547 0
532 -545 547 0
533 583 180 -534 0
533 180 -318 -534 0
-533 -180 0
-533 534 0
-533 -583 318 0
-534 583 -584 249 0
-534 583 584 411 0
534 -583 0
534 -584 -249 0
534 584 -411 0
535 358 536 543 -544 0
-535 544 0
-535 -358 0
-535 -543 0
-535 -536 0
-536 7 357 379 537 0
536 -379 0
536 -537 0
536 -7 0
536 -357 0
537 585 206 -538 0
537 -585 206 -541 0
-537 -206 0
-537 -585 541 0
-537 585 538 0
-538 586 539 0
-538 -586 540 0
538 -586 -540 0
538 586 -539 0
-539 576 587 0
-539 575 -587 0
539 -576 587 0
539 -575 -587 0
-540 574 587 0
-540 573 -587 0
540 -574 587 0
540 -573 -587 0
-541 -586 469 0
-541 586 542 0
541 586 -542 0
541 -586 -469 0
-542 572 587 0
-542 571 -587 0
542 -572 587 0
542 -571 -587 0
-543 243 360 0
-543 584 360 0
543 -360 0
543 -584 -243 0
544 583 -608 137 0
544 -608 137 320 0
-544 -137 0
-544 608 0
-544 -583 -320 0
545 583 180 -546 0
545 180 -433 -546 0
-545 -180 0
-545 546 0
-545 -583 433 0
-546 583 -584 201 0
-546 583 584 499 0
546 -583 0
546 -584 -201 0
546 584 -499 0
547 584 -548 0
547 583 192 -548 0
-547 548 0
-547 -584 -192 0
-547 -583 -584 0
548 583 549 -553 0
548 199 549 -553 0
-548 553 0
-548 -549 0
-548 -583 -199 0
-549 550 21 551 552 0
549 -551 0
549 -552 0
549 -550 0
549 -21 0
-550 577 578 0
550 -577 0
550 -578 0
-551 568 569 15 0
551 -15 0
551 -569 0
551 -568 0
552 585 206 -541 0
552 -585 206 -244 0
-552 -206 0
-552 585 541 0
-552 -585 244 0
553 570 7 135 -554 0
-553 -570 0
-553 554 0
-553 -135 0
-553 -7 0
554 -604 13 18 136 0
-554 -136 0
-554 604 0
-554 -18 0
-554 -13 0
555 -603 380 0
-555 603 0
-555 -380 0
-620 0
2 0

